40 7 1
1 2 1 351 2 351
1 2 0 331 3 331
1 2 1 317 4 317
1 1 3 500
1 1 0 752
1 2 1 326 4 326
1 1 3 468
1 1 3 337
1 1 1 523
1 1 0 639
1 1 1 476
1 1 3 477
1 2 0 806 2 806
1 3 1 554 4 554 5 554
1 1 3 380
1 1 3 555
1 1 0 556
1 1 0 639
1 1 3 440
1 1 3 531
1 1 3 327
1 1 0 414
1 1 3 499
1 1 1 362
1 1 3 426
1 2 0 535 6 535
1 1 0 534
1 1 3 378
1 1 3 342
1 1 3 300
1 3 0 732 2 732 3 732
1 3 1 351 4 351 5 351
1 1 3 352
1 1 3 299
1 1 0 544
1 2 0 494 3 494
1 1 3 482
1 1 3 504
1 2 1 331 4 91
1 1 0 420
